[0,     294,    1076,   1021,   10000,  10000,  10000,  10000],
[294,   0,      794,    906,    896,    10000,  10000,  10000],
[1076,  794,    0,      1106,   740,    743,    10000,  10000],
[1021,  906,    1106,   0,      536,    10000,  1362,   10000],
[10000, 896,    740,    536,    0,      1141,   985,     1566],
[10000, 10000,  743,    10000,  1141,   0,      1582,     894],
[10000, 10000,  10000,  1362,   985,    1582,   0,       1342],
[10000, 10000,  10000,  10000,  1566,   894,    1342,       0]